letting maxWeight=123
letting values=[23, 22, 9, 4, 26, 7, 11, 7, 7, 9, 23, 20, 24, 25, 5, 23, 5, 22, 15, 10, 16, 13, 28, 20, 11, 14, 3, 11, 12, 18, 16, 8, 28, 2, 11, 8, 23, 17, 20, 5, 24, 25, 8, 5, 4, 5, 2, 16, 8, 3, 17, 21, 20, 23, 10]
letting weights=[24, 21, 3, 7, 21, 13, 9, 20, 17, 25, 8, 23, 13, 12, 22, 5, 15, 23, 21, 16, 9, 2, 5, 23, 25, 11, 19, 4, 16, 5, 14, 25, 12, 1, 23, 2, 7, 8, 13, 14, 15, 4, 5, 22, 10, 10, 11, 15, 11, 10, 22, 2, 6, 17, 2]
